TCS_Benchmarks/redos_fix/snort3_output_distinct_4096_4095_0_0.txt
(.*)(.*)
(.*)(%[C-GIN-PSUXc-gin-psux])(.*)